% Instance for pentominoes model generated using https://github.com/zayenz/minizinc-pentominoes-generator
% Instance generated for board size 10 with 5 tiles using 17 as seed
% Generated board
%    5444411111
%    5444411111
%    5543433222
%    5543332222
%    5533332222
%    5333333222
%    5333333222
%    5333333222
%    5333333222
%    3333333222

size = 10;
tiles = 5;
expressions = [
    "( ([2 3 4 5 6]* 1{5} [2 3 4 5 6] [2 3 4 5 6]{5} 1{5} [2 3 4 5 6]*) | ([2 3 4 5 6]* 1{2} [2 3 4 5 6] [2 3 4 5 6]{8} 1{2} [2 3 4 5 6] [2 3 4 5 6]{8} 1{2} [2 3 4 5 6] [2 3 4 5 6]{8} 1{2} [2 3 4 5 6] [2 3 4 5 6]{8} 1{2} [2 3 4 5 6]*) | ([2 3 4 5 6]* 1{5} [2 3 4 5 6]{5} [2 3 4 5 6] 1{5} [2 3 4 5 6]*) | ([2 3 4 5 6]* 1{2} [2 3 4 5 6]{8} [2 3 4 5 6] 1{2} [2 3 4 5 6]{8} [2 3 4 5 6] 1{2} [2 3 4 5 6]{8} [2 3 4 5 6] 1{2} [2 3 4 5 6]{8} [2 3 4 5 6] 1{2} [2 3 4 5 6]*) )",
    "( ([1 3 4 5 6]* 2{3} [1 3 4 5 6] [1 3 4 5 6]{6} 2{4} [1 3 4 5 6] [1 3 4 5 6]{6} 2{4} [1 3 4 5 6] [1 3 4 5 6]{7} 2{3} [1 3 4 5 6] [1 3 4 5 6]{7} 2{3} [1 3 4 5 6] [1 3 4 5 6]{7} 2{3} [1 3 4 5 6] [1 3 4 5 6]{7} 2{3} [1 3 4 5 6] [1 3 4 5 6]{7} 2{3} [1 3 4 5 6]*) | ([1 3 4 5 6]* 2{2} [1 3 4 5 6]{3} [1 3 4 5 6] 2{8} [1 3 4 5 6]{2} [1 3 4 5 6] 2{8} [1 3 4 5 6]{2} [1 3 4 5 6] 2{8} [1 3 4 5 6]*) | ([1 3 4 5 6]* 2{3} [1 3 4 5 6]{7} [1 3 4 5 6] 2{3} [1 3 4 5 6]{7} [1 3 4 5 6] 2{3} [1 3 4 5 6]{7} [1 3 4 5 6] 2{3} [1 3 4 5 6]{7} [1 3 4 5 6] 2{3} [1 3 4 5 6]{7} [1 3 4 5 6] 2{4} [1 3 4 5 6]{6} [1 3 4 5 6] 2{4} [1 3 4 5 6]{6} [1 3 4 5 6] 2{3} [1 3 4 5 6]*) | ([1 3 4 5 6]* 2{8} [1 3 4 5 6] [1 3 4 5 6]{2} 2{8} [1 3 4 5 6] [1 3 4 5 6]{2} 2{8} [1 3 4 5 6] [1 3 4 5 6]{3} 2{2} [1 3 4 5 6]*) | ([1 3 4 5 6]* 2{3} [1 3 4 5 6]{7} [1 3 4 5 6] 2{4} [1 3 4 5 6]{6} [1 3 4 5 6] 2{4} [1 3 4 5 6]{6} [1 3 4 5 6] 2{3} [1 3 4 5 6]{7} [1 3 4 5 6] 2{3} [1 3 4 5 6]{7} [1 3 4 5 6] 2{3} [1 3 4 5 6]{7} [1 3 4 5 6] 2{3} [1 3 4 5 6]{7} [1 3 4 5 6] 2{3} [1 3 4 5 6]*) | ([1 3 4 5 6]* 2{2} [1 3 4 5 6]{5} [1 3 4 5 6] [1 3 4 5 6]{2} 2{8} [1 3 4 5 6] [1 3 4 5 6]{2} 2{8} [1 3 4 5 6] [1 3 4 5 6]{2} 2{8} [1 3 4 5 6]*) | ([1 3 4 5 6]* 2{3} [1 3 4 5 6] [1 3 4 5 6]{7} 2{3} [1 3 4 5 6] [1 3 4 5 6]{7} 2{3} [1 3 4 5 6] [1 3 4 5 6]{7} 2{3} [1 3 4 5 6] [1 3 4 5 6]{7} 2{3} [1 3 4 5 6] [1 3 4 5 6]{6} 2{4} [1 3 4 5 6] [1 3 4 5 6]{6} 2{4} [1 3 4 5 6] [1 3 4 5 6]{7} 2{3} [1 3 4 5 6]*) | ([1 3 4 5 6]* 2{8} [1 3 4 5 6]{2} [1 3 4 5 6] 2{8} [1 3 4 5 6]{2} [1 3 4 5 6] 2{8} [1 3 4 5 6]{2} [1 3 4 5 6] [1 3 4 5 6]{5} 2{2} [1 3 4 5 6]*) )",
    "( ([1 2 4 5 6]* 3{1} [1 2 4 5 6]{1} 3{2} [1 2 4 5 6]{3} [1 2 4 5 6] [1 2 4 5 6]{3} 3{3} [1 2 4 5 6]{4} [1 2 4 5 6] [1 2 4 5 6]{2} 3{4} [1 2 4 5 6]{4} [1 2 4 5 6] [1 2 4 5 6]{1} 3{6} [1 2 4 5 6]{3} [1 2 4 5 6] [1 2 4 5 6]{1} 3{6} [1 2 4 5 6]{3} [1 2 4 5 6] [1 2 4 5 6]{1} 3{6} [1 2 4 5 6]{3} [1 2 4 5 6] [1 2 4 5 6]{1} 3{6} [1 2 4 5 6]{3} [1 2 4 5 6] 3{7} [1 2 4 5 6]*) | ([1 2 4 5 6]* 3{1} [1 2 4 5 6]{9} [1 2 4 5 6] 3{5} [1 2 4 5 6]{5} [1 2 4 5 6] 3{6} [1 2 4 5 6]{4} [1 2 4 5 6] 3{8} [1 2 4 5 6]{2} [1 2 4 5 6] 3{7} [1 2 4 5 6]{3} [1 2 4 5 6] 3{8} [1 2 4 5 6]{2} [1 2 4 5 6] 3{5} [1 2 4 5 6]{2} 3{1} [1 2 4 5 6]*) | ([1 2 4 5 6]* 3{7} [1 2 4 5 6] [1 2 4 5 6]{3} 3{6} [1 2 4 5 6]{1} [1 2 4 5 6] [1 2 4 5 6]{3} 3{6} [1 2 4 5 6]{1} [1 2 4 5 6] [1 2 4 5 6]{3} 3{6} [1 2 4 5 6]{1} [1 2 4 5 6] [1 2 4 5 6]{3} 3{6} [1 2 4 5 6]{1} [1 2 4 5 6] [1 2 4 5 6]{4} 3{4} [1 2 4 5 6]{2} [1 2 4 5 6] [1 2 4 5 6]{4} 3{3} [1 2 4 5 6]{3} [1 2 4 5 6] [1 2 4 5 6]{3} 3{2} [1 2 4 5 6]{1} 3{1} [1 2 4 5 6]*) | ([1 2 4 5 6]* 3{1} [1 2 4 5 6]{2} 3{5} [1 2 4 5 6] [1 2 4 5 6]{2} 3{8} [1 2 4 5 6] [1 2 4 5 6]{3} 3{7} [1 2 4 5 6] [1 2 4 5 6]{2} 3{8} [1 2 4 5 6] [1 2 4 5 6]{4} 3{6} [1 2 4 5 6] [1 2 4 5 6]{5} 3{5} [1 2 4 5 6] [1 2 4 5 6]{9} 3{1} [1 2 4 5 6]*) | ([1 2 4 5 6]* 3{2} [1 2 4 5 6]{1} 3{1} [1 2 4 5 6]{3} [1 2 4 5 6] [1 2 4 5 6]{4} 3{3} [1 2 4 5 6]{3} [1 2 4 5 6] [1 2 4 5 6]{4} 3{4} [1 2 4 5 6]{2} [1 2 4 5 6] [1 2 4 5 6]{3} 3{6} [1 2 4 5 6]{1} [1 2 4 5 6] [1 2 4 5 6]{3} 3{6} [1 2 4 5 6]{1} [1 2 4 5 6] [1 2 4 5 6]{3} 3{6} [1 2 4 5 6]{1} [1 2 4 5 6] [1 2 4 5 6]{3} 3{6} [1 2 4 5 6]{1} [1 2 4 5 6] [1 2 4 5 6]{3} 3{7} [1 2 4 5 6]*) | ([1 2 4 5 6]* 3{1} [1 2 4 5 6] [1 2 4 5 6]{5} 3{5} [1 2 4 5 6] [1 2 4 5 6]{4} 3{6} [1 2 4 5 6] [1 2 4 5 6]{2} 3{8} [1 2 4 5 6] [1 2 4 5 6]{3} 3{7} [1 2 4 5 6] [1 2 4 5 6]{2} 3{8} [1 2 4 5 6] [1 2 4 5 6]{2} 3{1} [1 2 4 5 6]{2} 3{5} [1 2 4 5 6]*) | ([1 2 4 5 6]* 3{7} [1 2 4 5 6]{3} [1 2 4 5 6] [1 2 4 5 6]{1} 3{6} [1 2 4 5 6]{3} [1 2 4 5 6] [1 2 4 5 6]{1} 3{6} [1 2 4 5 6]{3} [1 2 4 5 6] [1 2 4 5 6]{1} 3{6} [1 2 4 5 6]{3} [1 2 4 5 6] [1 2 4 5 6]{1} 3{6} [1 2 4 5 6]{3} [1 2 4 5 6] [1 2 4 5 6]{2} 3{4} [1 2 4 5 6]{4} [1 2 4 5 6] [1 2 4 5 6]{3} 3{3} [1 2 4 5 6]{4} [1 2 4 5 6] [1 2 4 5 6]{3} 3{1} [1 2 4 5 6]{1} 3{2} [1 2 4 5 6]*) | ([1 2 4 5 6]* 3{5} [1 2 4 5 6]{2} 3{1} [1 2 4 5 6]{2} [1 2 4 5 6] 3{8} [1 2 4 5 6]{2} [1 2 4 5 6] 3{7} [1 2 4 5 6]{3} [1 2 4 5 6] 3{8} [1 2 4 5 6]{2} [1 2 4 5 6] 3{6} [1 2 4 5 6]{4} [1 2 4 5 6] 3{5} [1 2 4 5 6]{5} [1 2 4 5 6] 3{1} [1 2 4 5 6]*) )",
    "( ([1 2 3 5 6]* 4{4} [1 2 3 5 6]{5} [1 2 3 5 6] [1 2 3 5 6]{1} 4{4} [1 2 3 5 6]{5} [1 2 3 5 6] [1 2 3 5 6]{2} 4{1} [1 2 3 5 6]{1} 4{1} [1 2 3 5 6]{5} [1 2 3 5 6] [1 2 3 5 6]{2} 4{1} [1 2 3 5 6]*) | ([1 2 3 5 6]* 4{2} [1 2 3 5 6] [1 2 3 5 6]{6} 4{4} [1 2 3 5 6] [1 2 3 5 6]{8} 4{2} [1 2 3 5 6] [1 2 3 5 6]{7} 4{3} [1 2 3 5 6]*) | ([1 2 3 5 6]* 4{1} [1 2 3 5 6]{2} [1 2 3 5 6] [1 2 3 5 6]{5} 4{1} [1 2 3 5 6]{1} 4{1} [1 2 3 5 6]{2} [1 2 3 5 6] [1 2 3 5 6]{5} 4{4} [1 2 3 5 6]{1} [1 2 3 5 6] [1 2 3 5 6]{5} 4{4} [1 2 3 5 6]*) | ([1 2 3 5 6]* 4{3} [1 2 3 5 6]{7} [1 2 3 5 6] 4{2} [1 2 3 5 6]{8} [1 2 3 5 6] 4{4} [1 2 3 5 6]{6} [1 2 3 5 6] 4{2} [1 2 3 5 6]*) | ([1 2 3 5 6]* 4{4} [1 2 3 5 6]{1} [1 2 3 5 6] [1 2 3 5 6]{5} 4{4} [1 2 3 5 6]{1} [1 2 3 5 6] [1 2 3 5 6]{5} 4{1} [1 2 3 5 6]{1} 4{1} [1 2 3 5 6]{2} [1 2 3 5 6] [1 2 3 5 6]{7} 4{1} [1 2 3 5 6]*) | ([1 2 3 5 6]* 4{2} [1 2 3 5 6]{8} [1 2 3 5 6] 4{4} [1 2 3 5 6]{6} [1 2 3 5 6] 4{2} [1 2 3 5 6]{8} [1 2 3 5 6] 4{3} [1 2 3 5 6]*) | ([1 2 3 5 6]* 4{1} [1 2 3 5 6]{7} [1 2 3 5 6] [1 2 3 5 6]{2} 4{1} [1 2 3 5 6]{1} 4{1} [1 2 3 5 6]{5} [1 2 3 5 6] [1 2 3 5 6]{1} 4{4} [1 2 3 5 6]{5} [1 2 3 5 6] [1 2 3 5 6]{1} 4{4} [1 2 3 5 6]*) | ([1 2 3 5 6]* 4{3} [1 2 3 5 6] [1 2 3 5 6]{8} 4{2} [1 2 3 5 6] [1 2 3 5 6]{6} 4{4} [1 2 3 5 6] [1 2 3 5 6]{8} 4{2} [1 2 3 5 6]*) )",
    "( ([1 2 3 4 6]* 5{1} [1 2 3 4 6]{9} [1 2 3 4 6] 5{1} [1 2 3 4 6]{9} [1 2 3 4 6] 5{2} [1 2 3 4 6]{8} [1 2 3 4 6] 5{2} [1 2 3 4 6]{8} [1 2 3 4 6] 5{2} [1 2 3 4 6]{8} [1 2 3 4 6] 5{1} [1 2 3 4 6]{9} [1 2 3 4 6] 5{1} [1 2 3 4 6]{9} [1 2 3 4 6] 5{1} [1 2 3 4 6]{9} [1 2 3 4 6] 5{1} [1 2 3 4 6]*) | ([1 2 3 4 6]* 5{9} [1 2 3 4 6] [1 2 3 4 6]{5} 5{3} [1 2 3 4 6]*) | ([1 2 3 4 6]* 5{1} [1 2 3 4 6] [1 2 3 4 6]{9} 5{1} [1 2 3 4 6] [1 2 3 4 6]{9} 5{1} [1 2 3 4 6] [1 2 3 4 6]{9} 5{1} [1 2 3 4 6] [1 2 3 4 6]{8} 5{2} [1 2 3 4 6] [1 2 3 4 6]{8} 5{2} [1 2 3 4 6] [1 2 3 4 6]{8} 5{2} [1 2 3 4 6] [1 2 3 4 6]{9} 5{1} [1 2 3 4 6] [1 2 3 4 6]{9} 5{1} [1 2 3 4 6]*) | ([1 2 3 4 6]* 5{3} [1 2 3 4 6]{5} [1 2 3 4 6] 5{9} [1 2 3 4 6]*) | ([1 2 3 4 6]* 5{1} [1 2 3 4 6] [1 2 3 4 6]{9} 5{1} [1 2 3 4 6] [1 2 3 4 6]{8} 5{2} [1 2 3 4 6] [1 2 3 4 6]{8} 5{2} [1 2 3 4 6] [1 2 3 4 6]{8} 5{2} [1 2 3 4 6] [1 2 3 4 6]{9} 5{1} [1 2 3 4 6] [1 2 3 4 6]{9} 5{1} [1 2 3 4 6] [1 2 3 4 6]{9} 5{1} [1 2 3 4 6] [1 2 3 4 6]{9} 5{1} [1 2 3 4 6]*) | ([1 2 3 4 6]* 5{9} [1 2 3 4 6]{1} [1 2 3 4 6] [1 2 3 4 6]{2} 5{3} [1 2 3 4 6]*) | ([1 2 3 4 6]* 5{1} [1 2 3 4 6]{9} [1 2 3 4 6] 5{1} [1 2 3 4 6]{9} [1 2 3 4 6] 5{1} [1 2 3 4 6]{9} [1 2 3 4 6] 5{1} [1 2 3 4 6]{9} [1 2 3 4 6] 5{2} [1 2 3 4 6]{8} [1 2 3 4 6] 5{2} [1 2 3 4 6]{8} [1 2 3 4 6] 5{2} [1 2 3 4 6]{8} [1 2 3 4 6] 5{1} [1 2 3 4 6]{9} [1 2 3 4 6] 5{1} [1 2 3 4 6]*) | ([1 2 3 4 6]* 5{3} [1 2 3 4 6]{2} [1 2 3 4 6] [1 2 3 4 6]{1} 5{9} [1 2 3 4 6]*) )",
];
